db/inputs/1265827227100632449725251196622705811337.smt2
(set-logic QF_FP)
(declare-const x0 (_ FloatingPoint 11 53))
(declare-const x1 (_ FloatingPoint 11 53))
(declare-const x2 (_ FloatingPoint 11 53))
(declare-const x3 (_ FloatingPoint 11 53))
(declare-const x4 (_ FloatingPoint 11 53))
(declare-const x5 (_ FloatingPoint 11 53))
(declare-const x6 (_ FloatingPoint 11 53))
(declare-const x7 (_ FloatingPoint 11 53))
(declare-const x8 (_ FloatingPoint 11 53))
(declare-const x9 (_ FloatingPoint 11 53))
(declare-const x10 (_ FloatingPoint 11 53))
(assert (fp.leq (fp.neg x0) (fp.add RNE x4 x4)))
(assert (fp.leq (fp.mul RNE x7 x4) (fp.neg x10)))
(assert (fp.geq (fp.div RNE x6 x8) (fp.mul RNE x7 x0)))
(assert (fp.geq (fp.mul RNE x1 x2) (fp.mul RNE x5 x1)))
(assert (fp.leq (fp.neg x0) (fp.mul RNE x5 x2)))
(assert (fp.gt (fp.sub RNE x7 x4) (fp.add RNE x2 x3)))
(assert (fp.eq (fp.mul RNE x4 x7) (fp.neg x1)))
(assert (fp.lt (fp.sub RNE x7 x0) (fp.div RNE x0 x1)))
(assert (fp.lt (fp.add RNE x4 x5) (fp.div RNE x9 x9)))
(assert (fp.gt (fp.add RNE x8 x10) (fp.mul RNE x8 x7)))
(assert (fp.leq (fp.neg x9) (fp.sub RNE x2 x8)))
(assert (fp.geq (fp.add RNE x10 x7) (fp.add RNE x6 x1)))
(assert (fp.geq (fp.neg x3) (fp.neg x1)))
(assert (fp.gt (fp.mul RNE x10 x9) (fp.sub RNE x4 x6)))
(assert (fp.lt (fp.neg x9) (fp.sub RNE x6 x5)))
(assert (fp.leq (fp.add RNE x8 x9) (fp.div RNE x9 x5)))
(assert (fp.leq (fp.mul RNE x2 x0) (fp.neg x2)))
(assert (fp.eq (fp.div RNE x3 x8) (fp.sub RNE x10 x10)))
(assert (fp.geq (fp.add RNE x6 x4) (fp.neg x2)))
(assert (fp.geq (fp.add RNE x8 x1) (fp.add RNE x0 x3)))
(check-sat)
