db/data/1265827227100632449725251196622705811337.z3.out
-------------------
2500.201833216
